s td 1241 2 1512
b 1 1
b 2 2 734
b 3 3 794
b 4 4
b 5 6 1418
b 6 5 757
b 7 5 1417
b 8 1417 1418
b 9 1418
b 10 7
b 11 8
b 12 9 529
b 13 10
b 14 11 1013
b 15 1013 1014
b 16 12
b 17 13
b 18 14 619
b 19 15 585
b 20 15 620
b 21 16 951
b 22 951 952
b 23 17 952
b 24 17 959
b 25 18 532
b 26 19 1208
b 27 20 1121
b 28 21 821
b 29 821 822
b 30 22 398
b 31 397 398
b 32 398
b 33 23
b 34 24 441
b 35 25
b 36 26 1298
b 37 27 735
b 38 56 736
b 39 735 736
b 40 736
b 41 28
b 42 29 1343
b 43 30 1047
b 44 31 1048
b 45 895 896
b 46 32 896
b 47 32 1316
b 48 34 1482
b 49 33 627
b 50 33 1481
b 51 1481 1482
b 52 1482
b 53 35
b 54 36 820
b 55 819 820
b 56 820
b 57 429 430
b 58 37 430
b 59 37 699
b 60 38 662
b 61 39 1283
b 62 40 637
b 63 637 638
b 64 41
b 65 42 935
b 66 42 1158
b 67 43
b 68 44
b 69 45 520
b 70 46 960
b 71 46 1026
b 72 47 452
b 73 47 875
b 74 48
b 75 49 1422
b 76 50
b 77 51 498
b 78 497 498
b 79 498
b 80 52
b 81 53
b 82 54
b 83 55 464
b 84 463 464
b 85 464
b 86 57
b 87 58 1320
b 88 1319 1320
b 89 1320
b 90 59
b 91 60 588
b 92 61 639
b 93 61 1213
b 94 62
b 95 701 702
b 96 63 702
b 97 63 785
b 98 63 1327
b 99 64
b 100 65 1037
b 101 66 1268
b 102 67 523
b 103 67 591
b 104 591 592
b 105 68 592
b 106 68 909
b 107 909 910
b 108 69 487
b 109 487 488
b 110 70 1195
b 111 71 1196
b 112 73 1197
b 113 73 976
b 114 975 976
b 115 72 975
b 116 72 1432
b 117 74 421
b 118 74 682
b 119 681 682
b 120 682
b 121 75 422
b 122 75 1349
b 123 76 1063
b 124 76 1350
b 125 77
b 126 78 432
b 127 78 649
b 128 79 650
b 129 79 1015
b 130 80 1016
b 131 81 565
b 132 81 1065
b 133 82 566
b 134 82 824
b 135 83 745
b 136 83 840
b 137 84
b 138 85
b 139 86 1052
b 140 1051 1052
b 141 1052
b 142 87
b 143 88 433
b 144 88 1348
b 145 1347 1348
b 146 1348
b 147 90 1310
b 148 118 425
b 149 89 434
b 150 118 706
b 151 118 1302
b 152 1301 1302
b 153 89 1301
b 154 89 1309
b 155 1309 1310
b 156 1310
b 157 651 652
b 158 91 651
b 159 91 1017
b 160 92 629
b 161 93
b 162 94
b 163 95 641
b 164 95 748
b 165 96
b 166 97 703
b 167 126 704
b 168 703 704
b 169 704
b 170 98
b 171 99 643
b 172 100 856
b 173 101
b 174 102 944
b 175 943 944
b 176 944
b 177 103 645
b 178 105 714
b 179 489 490
b 180 104 490
b 181 104 713
b 182 713 714
b 183 714
b 184 106 1124
b 185 106 1216
b 186 107 1060
b 187 107 1277
b 188 1277 1278
b 189 108 1371
b 190 109 1389
b 191 721 722
b 192 111 721
b 193 111 466
b 194 465 466
b 195 110 465
b 196 110 1390
b 197 1389 1390
b 198 1390
b 199 112
b 200 113 593
b 201 113 609
b 202 114 400
b 203 115
b 204 116
b 205 117
b 206 119 787
b 207 787 788
b 208 120 1018
b 209 120 1173
b 210 1173 1174
b 211 121 1373
b 212 122
b 213 124 689
b 214 124 1426
b 215 123 1128
b 216 123 1425
b 217 1425 1426
b 218 1426
b 219 125 690
b 220 125 1237
b 221 127 928
b 222 927 928
b 223 928
b 224 128
b 225 129 403
b 226 129 848
b 227 130 402
b 228 131 405
b 229 1077 1078
b 230 131 1078
b 231 131 1361
b 232 1361 1362
b 233 132 646
b 234 133 966
b 235 134 797
b 236 135 1333
b 237 136
b 238 137 601
b 239 138 602
b 240 138 1458
b 241 1457 1458
b 242 1458
b 243 139 955
b 244 140
b 245 141 1073
b 246 142
b 247 143 603
b 248 603 604
b 249 144 1079
b 250 145
b 251 146
b 252 147 915
b 253 148
b 254 149 1103
b 255 149 1486
b 256 150 1082
b 257 151
b 258 152 1106
b 259 152 1501
b 260 153 1502
b 261 154 570
b 262 154 1039
b 263 1039 1040
b 264 155 1209
b 265 184 1210
b 266 1209 1210
b 267 1210
b 268 156 454
b 269 156 1159
b 270 157
b 271 158
b 272 159 789
b 273 159 920
b 274 159 1149
b 275 160 1179
b 276 161 1391
b 277 162
b 278 163 867
b 279 164 968
b 280 165
b 281 166 1465
b 282 167 1317
b 283 167 1466
b 284 1465 1466
b 285 1466
b 286 168
b 287 169 877
b 288 877 878
b 289 170 810
b 290 809 810
b 291 810
b 292 833 834
b 293 171 833
b 294 171 911
b 295 911 912
b 296 897 898
b 297 172 898
b 298 172 983
b 299 173 507
b 300 173 984
b 301 595 596
b 302 174 596
b 303 174 958
b 304 175 1118
b 305 1117 1118
b 306 1118
b 307 176
b 308 177
b 309 178 1303
b 310 1303 1304
b 311 179 947
b 312 180 948
b 313 180 1028
b 314 181
b 315 182 616
b 316 183 509
b 317 183 1042
b 318 185 750
b 319 186
b 320 187
b 321 188 1379
b 322 188 1504
b 323 1503 1504
b 324 1504
b 325 189 1019
b 326 190
b 327 191 980
b 328 191 1273
b 329 192 1274
b 330 193
b 331 194
b 332 195
b 333 196
b 334 197
b 335 198
b 336 561 562
b 337 199 562
b 338 199 1365
b 339 200 828
b 340 201 1404
b 341 201 1505
b 342 1505 1506
b 343 202
b 344 203
b 345 204 1402
b 346 1401 1402
b 347 1402
b 348 205 1107
b 349 206 1151
b 350 207
b 351 208 435
b 352 799 800
b 353 208 800
b 354 208 1154
b 355 1153 1154
b 356 1154
b 357 209
b 358 210 859
b 359 211 860
b 360 212 510
b 361 212 1110
b 362 1109 1110
b 363 1110
b 364 213 483
b 365 214
b 366 215 1451
b 367 216
b 368 217 688
b 369 687 688
b 370 688
b 371 218
b 372 219 394
b 373 219 725
b 374 220 614
b 375 222 606
b 376 222 1468
b 377 221 631
b 378 221 692
b 379 221 1467
b 380 1467 1468
b 381 1468
b 382 223 899
b 383 224
b 384 225
b 385 226 672
b 386 227 988
b 387 228 1366
b 388 229
b 389 230 552
b 390 231 1469
b 391 232 1470
b 392 1469 1470
b 393 1470
b 394 815 816
b 395 233 815
b 396 233 1459
b 397 1459 1460
b 398 234 1181
b 399 235
b 400 236 880
b 401 237 813
b 402 238
b 403 239 887
b 404 239 1487
b 405 240 739
b 406 241 1393
b 407 242 572
b 408 242 1288
b 409 243 779
b 410 779 780
b 411 244 1452
b 412 245 1233
b 413 1233 1234
b 414 246
b 415 247 849
b 416 248 726
b 417 249 1111
b 418 250 632
b 419 250 1112
b 420 251 1471
b 421 1471 1472
b 422 252
b 423 253
b 424 254 1489
b 425 255
b 426 256 901
b 427 257 902
b 428 901 902
b 429 902
b 430 258 558
b 431 557 558
b 432 558
b 433 288 1034
b 434 259 1002
b 435 259 1033
b 436 1033 1034
b 437 1034
b 438 260 537
b 439 261 1095
b 440 262
b 441 263 889
b 442 1129 1130
b 443 263 1130
b 444 263 1139
b 445 264 738
b 446 737 738
b 447 738
b 448 265
b 449 266 473
b 450 266 814
b 451 267
b 452 268
b 453 269 1005
b 454 270 626
b 455 271
b 456 272 396
b 457 272 1330
b 458 274 518
b 459 273 437
b 460 273 517
b 461 517 518
b 462 518
b 463 275 1201
b 464 1201 1202
b 465 276
b 466 277
b 467 278
b 468 617 618
b 469 279 617
b 470 279 1383
b 471 1383 1384
b 472 280 1046
b 473 281
b 474 1113 1114
b 475 282 1114
b 476 282 1136
b 477 283 851
b 478 284
b 479 285 1032
b 480 286 576
b 481 286 1321
b 482 835 836
b 483 287 835
b 484 287 1322
b 485 1321 1322
b 486 1322
b 487 289 903
b 488 289 1454
b 489 290 1276
b 490 1275 1276
b 491 1276
b 492 291 541
b 493 541 542
b 494 292
b 495 293 460
b 496 459 460
b 497 460
b 498 294
b 499 295
b 500 296
b 501 297 881
b 502 297 931
b 503 298 932
b 504 299 678
b 505 300 1097
b 506 301
b 507 302 549
b 508 303 1367
b 509 539 540
b 510 304 540
b 511 304 801
b 512 801 802
b 513 305
b 514 306 1075
b 515 307
b 516 308
b 517 309
b 518 871 872
b 519 310 871
b 520 310 1070
b 521 311
b 522 312 528
b 523 313 447
b 524 314 448
b 525 314 1251
b 526 315
b 527 316 1456
b 528 317
b 529 318 974
b 530 319 784
b 531 320 1188
b 532 321 863
b 533 322 719
b 534 719 720
b 535 323
b 536 324 754
b 537 753 754
b 538 754
b 539 325 1055
b 540 1055 1056
b 541 326 1332
b 542 1331 1332
b 543 1332
b 544 327
b 545 328
b 546 329 1325
b 547 330 428
b 548 330 949
b 549 949 950
b 550 331
b 551 332 1368
b 552 333 730
b 553 333 1163
b 554 334
b 555 335
b 556 336 696
b 557 337
b 558 338 1142
b 559 1141 1142
b 560 1142
b 561 339
b 562 577 578
b 563 340 578
b 564 340 1477
b 565 1477 1478
b 566 341 503
b 567 503 504
b 568 1161 1162
b 569 342 1162
b 570 342 1415
b 571 343 913
b 572 343 1416
b 573 344 914
b 574 345 894
b 575 345 1479
b 576 346 1023
b 577 346 1480
b 578 1479 1480
b 579 1480
b 580 347
b 581 348 1138
b 582 349 579
b 583 350 580
b 584 351 873
b 585 853 854
b 586 352 853
b 587 352 866
b 588 865 866
b 589 866
b 590 354 1356
b 591 933 934
b 592 353 933
b 593 353 1355
b 594 1355 1356
b 595 1356
b 596 355 1012
b 597 356 560
b 598 357 1387
b 599 357 1358
b 600 1357 1358
b 601 356 1357
b 602 356 1444
b 603 358
b 604 359
b 605 360 997
b 606 360 1510
b 607 361 1435
b 608 771 772
b 609 390 772
b 610 390 1436
b 611 1435 1436
b 612 1436
b 613 362 804
b 614 362 1305
b 615 362 1434
b 616 363 817
b 617 363 883
b 618 883 884
b 619 364 884
b 620 364 906
b 621 905 906
b 622 906
b 623 365 1429
b 624 366
b 625 367
b 626 368
b 627 369 1369
b 628 370 1071
b 629 371
b 630 372
b 631 373 1218
b 632 374
b 633 375
b 634 376 755
b 635 755 756
b 636 377 1205
b 637 1185 1186
b 638 378 1185
b 639 378 1206
b 640 379
b 641 380 1294
b 642 380 1445
b 643 381 411
b 644 381 1446
b 645 382 412
b 646 383
b 647 384
b 648 385
b 649 386 1388
b 650 387
b 651 388 1222
b 652 389
b 653 391 707
b 654 391 1088
b 655 392
b 656 393
b 657 395
b 658 399
b 659 401
b 660 404
b 661 406
b 662 407
b 663 408
b 664 409
b 665 410
b 666 413
b 667 414
b 668 415
b 669 416
b 670 417
b 671 418
b 672 419
b 673 420
b 674 423 424
b 675 426
b 676 427
b 677 431
b 678 436
b 679 438
b 680 439
b 681 440
b 682 442
b 683 443
b 684 444
b 685 445
b 686 446
b 687 449 450
b 688 451
b 689 453
b 690 455
b 691 456
b 692 457
b 693 458
b 694 461
b 695 462
b 696 467 468
b 697 469 470
b 698 471 472
b 699 474
b 700 475
b 701 476
b 702 477
b 703 478
b 704 479
b 705 480
b 706 481 482
b 707 484
b 708 485
b 709 486
b 710 491 492
b 711 493
b 712 494
b 713 495
b 714 496
b 715 499 500
b 716 501 502
b 717 505
b 718 506
b 719 508
b 720 511 512
b 721 513 514
b 722 515
b 723 516
b 724 519
b 725 521 522
b 726 524
b 727 525
b 728 526
b 729 527
b 730 530
b 731 531
b 732 533 534
b 733 535 536
b 734 538
b 735 543
b 736 544
b 737 545 546
b 738 547
b 739 548
b 740 550
b 741 551
b 742 553
b 743 554
b 744 555
b 745 556
b 746 559
b 747 563
b 748 564
b 749 567
b 750 568
b 751 569
b 752 571
b 753 573 574
b 754 575
b 755 581
b 756 582
b 757 583
b 758 584
b 759 586
b 760 587
b 761 589
b 762 590
b 763 594
b 764 597 598
b 765 599 600
b 766 605
b 767 607
b 768 608
b 769 610
b 770 611
b 771 612
b 772 613
b 773 615
b 774 621
b 775 622
b 776 623 624
b 777 625
b 778 628
b 779 630
b 780 633
b 781 634
b 782 635
b 783 636
b 784 640
b 785 642
b 786 644
b 787 647
b 788 648
b 789 653
b 790 654
b 791 655 656
b 792 657 658
b 793 659
b 794 660
b 795 661
b 796 663
b 797 664
b 798 665
b 799 666
b 800 667
b 801 668
b 802 669
b 803 670
b 804 671
b 805 673 674
b 806 675
b 807 676
b 808 677
b 809 679
b 810 680
b 811 683
b 812 684
b 813 685
b 814 686
b 815 691
b 816 693
b 817 694
b 818 695
b 819 697 698
b 820 700
b 821 705
b 822 708
b 823 709
b 824 710
b 825 711
b 826 712
b 827 715
b 828 716
b 829 717 718
b 830 723
b 831 724
b 832 727
b 833 728
b 834 729
b 835 731
b 836 732
b 837 733
b 838 740
b 839 741
b 840 742
b 841 743
b 842 744
b 843 746
b 844 747
b 845 749
b 846 751
b 847 752
b 848 758
b 849 759
b 850 760
b 851 761
b 852 762
b 853 763
b 854 764
b 855 765 766
b 856 767
b 857 768
b 858 769 770
b 859 773 774
b 860 775
b 861 776
b 862 777
b 863 778
b 864 781
b 865 782
b 866 783
b 867 786
b 868 790
b 869 791
b 870 792
b 871 793
b 872 795
b 873 796
b 874 798
b 875 803
b 876 805 806
b 877 807
b 878 808
b 879 811
b 880 812
b 881 818
b 882 823
b 883 825
b 884 826
b 885 827
b 886 829 830
b 887 831 832
b 888 837
b 889 838
b 890 839
b 891 841 842
b 892 843
b 893 844
b 894 845
b 895 846
b 896 847
b 897 850
b 898 852
b 899 855
b 900 857 858
b 901 861 862
b 902 864
b 903 868
b 904 869 870
b 905 874
b 906 876
b 907 879
b 908 882
b 909 885
b 910 886
b 911 888
b 912 890
b 913 891
b 914 892
b 915 893
b 916 900
b 917 904
b 918 907 908
b 919 916
b 920 917
b 921 918
b 922 919
b 923 921
b 924 922
b 925 923
b 926 924
b 927 925
b 928 926
b 929 929
b 930 930
b 931 936
b 932 937
b 933 938
b 934 939
b 935 940
b 936 941 942
b 937 945 946
b 938 953
b 939 954
b 940 956
b 941 957
b 942 961
b 943 962
b 944 963
b 945 964
b 946 965
b 947 967
b 948 969
b 949 970
b 950 971
b 951 972
b 952 973
b 953 977 978
b 954 979
b 955 981
b 956 982
b 957 985
b 958 986
b 959 987
b 960 989
b 961 990
b 962 991
b 963 992
b 964 993
b 965 994
b 966 995
b 967 996
b 968 998
b 969 999
b 970 1000
b 971 1001
b 972 1003
b 973 1004
b 974 1006
b 975 1007
b 976 1008
b 977 1009
b 978 1010
b 979 1011
b 980 1020
b 981 1021
b 982 1022
b 983 1024
b 984 1025
b 985 1027
b 986 1029 1030
b 987 1031
b 988 1035
b 989 1036
b 990 1038
b 991 1041
b 992 1043 1044
b 993 1045
b 994 1049
b 995 1050
b 996 1053
b 997 1054
b 998 1057
b 999 1058
b 1000 1059
b 1001 1061
b 1002 1062
b 1003 1064
b 1004 1066
b 1005 1067
b 1006 1068
b 1007 1069
b 1008 1072
b 1009 1074
b 1010 1076
b 1011 1080
b 1012 1081
b 1013 1083
b 1014 1084
b 1015 1085 1086
b 1016 1087
b 1017 1089
b 1018 1090
b 1019 1091
b 1020 1092
b 1021 1093 1094
b 1022 1096
b 1023 1098
b 1024 1099
b 1025 1100
b 1026 1101
b 1027 1102
b 1028 1104
b 1029 1105
b 1030 1108
b 1031 1115
b 1032 1116
b 1033 1119
b 1034 1120
b 1035 1122
b 1036 1123
b 1037 1125 1126
b 1038 1127
b 1039 1131
b 1040 1132
b 1041 1133
b 1042 1134
b 1043 1135
b 1044 1137
b 1045 1140
b 1046 1143
b 1047 1144
b 1048 1145 1146
b 1049 1147
b 1050 1148
b 1051 1150
b 1052 1152
b 1053 1155
b 1054 1156
b 1055 1157
b 1056 1160
b 1057 1164
b 1058 1165 1166
b 1059 1167
b 1060 1168
b 1061 1169
b 1062 1170
b 1063 1171 1172
b 1064 1175
b 1065 1176
b 1066 1177 1178
b 1067 1180
b 1068 1182
b 1069 1183
b 1070 1184
b 1071 1187
b 1072 1189
b 1073 1190
b 1074 1191 1192
b 1075 1193
b 1076 1194
b 1077 1198
b 1078 1199
b 1079 1200
b 1080 1203
b 1081 1204
b 1082 1207
b 1083 1211 1212
b 1084 1214
b 1085 1215
b 1086 1217
b 1087 1219
b 1088 1220
b 1089 1221
b 1090 1223
b 1091 1224
b 1092 1225
b 1093 1226
b 1094 1227
b 1095 1228
b 1096 1229
b 1097 1230
b 1098 1231
b 1099 1232
b 1100 1235
b 1101 1236
b 1102 1238
b 1103 1239
b 1104 1240
b 1105 1241 1242
b 1106 1243
b 1107 1244
b 1108 1245
b 1109 1246
b 1110 1247
b 1111 1248
b 1112 1249 1250
b 1113 1252
b 1114 1253 1254
b 1115 1255
b 1116 1256
b 1117 1257 1258
b 1118 1259
b 1119 1260
b 1120 1261 1262
b 1121 1263
b 1122 1264
b 1123 1265 1266
b 1124 1267
b 1125 1269 1270
b 1126 1271 1272
b 1127 1279
b 1128 1280
b 1129 1281
b 1130 1282
b 1131 1284
b 1132 1285
b 1133 1286
b 1134 1287
b 1135 1289
b 1136 1290
b 1137 1291
b 1138 1292
b 1139 1293
b 1140 1295
b 1141 1296
b 1142 1297
b 1143 1299
b 1144 1300
b 1145 1306
b 1146 1307 1308
b 1147 1311 1312
b 1148 1313 1314
b 1149 1315
b 1150 1318
b 1151 1323
b 1152 1324
b 1153 1326
b 1154 1328
b 1155 1329
b 1156 1334
b 1157 1335
b 1158 1336
b 1159 1337
b 1160 1338
b 1161 1339
b 1162 1340
b 1163 1341
b 1164 1342
b 1165 1344
b 1166 1345 1346
b 1167 1351 1352
b 1168 1353 1354
b 1169 1359 1360
b 1170 1363
b 1171 1364
b 1172 1370
b 1173 1372
b 1174 1374
b 1175 1375
b 1176 1376
b 1177 1377 1378
b 1178 1380
b 1179 1381
b 1180 1382
b 1181 1385 1386
b 1182 1392
b 1183 1394
b 1184 1395
b 1185 1396
b 1186 1397 1398
b 1187 1399 1400
b 1188 1403
b 1189 1405 1406
b 1190 1407
b 1191 1408
b 1192 1409
b 1193 1410
b 1194 1411 1412
b 1195 1413
b 1196 1414
b 1197 1419
b 1198 1420
b 1199 1421
b 1200 1423
b 1201 1424
b 1202 1427 1428
b 1203 1430
b 1204 1431
b 1205 1433
b 1206 1437 1438
b 1207 1439
b 1208 1440
b 1209 1441
b 1210 1442
b 1211 1443
b 1212 1447
b 1213 1448
b 1214 1449 1450
b 1215 1453
b 1216 1455
b 1217 1461 1462
b 1218 1463
b 1219 1464
b 1220 1473 1474
b 1221 1475
b 1222 1476
b 1223 1483
b 1224 1484
b 1225 1485
b 1226 1488
b 1227 1490
b 1228 1491
b 1229 1492
b 1230 1493
b 1231 1494
b 1232 1495
b 1233 1496
b 1234 1497
b 1235 1498
b 1236 1499
b 1237 1500
b 1238 1507
b 1239 1508
b 1240 1509
b 1241 1511 1512
1 2
1 3
1 4
1 5
1 10
1 11
1 12
1 13
1 14
1 16
1 17
1 18
1 19
1 21
1 25
1 26
1 27
1 28
1 30
1 33
1 34
1 35
1 36
1 37
1 41
1 42
1 43
1 44
1 45
1 48
1 53
1 54
1 57
1 60
1 61
1 62
1 64
1 65
1 67
1 68
1 69
1 70
1 72
1 74
1 75
1 76
1 77
1 80
1 81
1 82
1 83
1 86
1 87
1 90
1 91
1 92
1 94
1 95
1 99
1 100
1 101
1 102
1 108
1 110
1 111
1 112
1 117
1 121
1 123
1 125
1 126
1 128
1 130
1 131
1 133
1 135
1 137
1 138
1 139
1 142
1 143
1 147
1 157
1 160
1 161
1 162
1 163
1 165
1 166
1 170
1 171
1 172
1 173
1 174
1 177
1 178
1 184
1 186
1 189
1 190
1 199
1 200
1 202
1 203
1 204
1 205
1 206
1 208
1 211
1 212
1 213
1 219
1 221
1 224
1 225
1 227
1 228
1 233
1 234
1 235
1 236
1 237
1 238
1 239
1 243
1 244
1 245
1 246
1 247
1 249
1 250
1 251
1 252
1 253
1 254
1 256
1 257
1 258
1 260
1 261
1 264
1 268
1 270
1 271
1 272
1 275
1 276
1 277
1 278
1 279
1 280
1 281
1 286
1 287
1 289
1 292
1 296
1 299
1 301
1 304
1 307
1 308
1 309
1 311
1 312
1 314
1 315
1 316
1 318
1 319
1 320
1 321
1 325
1 326
1 327
1 329
1 330
1 331
1 332
1 333
1 334
1 335
1 336
1 339
1 340
1 343
1 344
1 345
1 348
1 349
1 350
1 351
1 357
1 358
1 359
1 360
1 364
1 365
1 366
1 367
1 368
1 371
1 372
1 374
1 375
1 382
1 383
1 384
1 385
1 386
1 387
1 388
1 389
1 390
1 394
1 398
1 399
1 400
1 401
1 402
1 403
1 405
1 406
1 407
1 409
1 411
1 412
1 414
1 415
1 416
1 417
1 418
1 420
1 422
1 423
1 424
1 425
1 426
1 430
1 433
1 438
1 439
1 440
1 441
1 445
1 448
1 449
1 451
1 452
1 453
1 454
1 455
1 456
1 458
1 463
1 465
1 466
1 467
1 468
1 472
1 473
1 474
1 477
1 478
1 479
1 480
1 487
1 489
1 492
1 494
1 495
1 498
1 499
1 500
1 501
1 503
1 504
1 505
1 506
1 507
1 508
1 509
1 513
1 514
1 515
1 516
1 517
1 518
1 521
1 522
1 523
1 524
1 526
1 527
1 528
1 529
1 530
1 531
1 532
1 533
1 535
1 536
1 539
1 541
1 544
1 545
1 546
1 547
1 550
1 551
1 552
1 554
1 555
1 556
1 557
1 558
1 561
1 562
1 566
1 568
1 571
1 573
1 574
1 580
1 581
1 582
1 583
1 584
1 585
1 590
1 596
1 597
1 603
1 604
1 605
1 607
1 613
1 616
1 623
1 624
1 625
1 626
1 627
1 628
1 629
1 630
1 631
1 632
1 633
1 634
1 636
1 637
1 640
1 641
1 643
1 645
1 646
1 647
1 648
1 649
1 650
1 651
1 652
1 653
1 655
1 656
1 657
1 658
1 659
1 660
1 661
1 662
1 663
1 664
1 665
1 666
1 667
1 668
1 669
1 670
1 671
1 672
1 673
1 674
1 675
1 676
1 677
1 678
1 679
1 680
1 681
1 682
1 683
1 684
1 685
1 686
1 687
1 688
1 689
1 690
1 691
1 692
1 693
1 694
1 695
1 696
1 697
1 698
1 699
1 700
1 701
1 702
1 703
1 704
1 705
1 706
1 707
1 708
1 709
1 710
1 711
1 712
1 713
1 714
1 715
1 716
1 717
1 718
1 719
1 720
1 721
1 722
1 723
1 724
1 725
1 726
1 727
1 728
1 729
1 730
1 731
1 732
1 733
1 734
1 735
1 736
1 737
1 738
1 739
1 740
1 741
1 742
1 743
1 744
1 745
1 746
1 747
1 748
1 749
1 750
1 751
1 752
1 753
1 754
1 755
1 756
1 757
1 758
1 759
1 760
1 761
1 762
1 763
1 764
1 765
1 766
1 767
1 768
1 769
1 770
1 771
1 772
1 773
1 774
1 775
1 776
1 777
1 778
1 779
1 780
1 781
1 782
1 783
1 784
1 785
1 786
1 787
1 788
1 789
1 790
1 791
1 792
1 793
1 794
1 795
1 796
1 797
1 798
1 799
1 800
1 801
1 802
1 803
1 804
1 805
1 806
1 807
1 808
1 809
1 810
1 811
1 812
1 813
1 814
1 815
1 816
1 817
1 818
1 819
1 820
1 821
1 822
1 823
1 824
1 825
1 826
1 827
1 828
1 829
1 830
1 831
1 832
1 833
1 834
1 835
1 836
1 837
1 838
1 839
1 840
1 841
1 842
1 843
1 844
1 845
1 846
1 847
1 848
1 849
1 850
1 851
1 852
1 853
1 854
1 855
1 856
1 857
1 858
1 859
1 860
1 861
1 862
1 863
1 864
1 865
1 866
1 867
1 868
1 869
1 870
1 871
1 872
1 873
1 874
1 875
1 876
1 877
1 878
1 879
1 880
1 881
1 882
1 883
1 884
1 885
1 886
1 887
1 888
1 889
1 890
1 891
1 892
1 893
1 894
1 895
1 896
1 897
1 898
1 899
1 900
1 901
1 902
1 903
1 904
1 905
1 906
1 907
1 908
1 909
1 910
1 911
1 912
1 913
1 914
1 915
1 916
1 917
1 918
1 919
1 920
1 921
1 922
1 923
1 924
1 925
1 926
1 927
1 928
1 929
1 930
1 931
1 932
1 933
1 934
1 935
1 936
1 937
1 938
1 939
1 940
1 941
1 942
1 943
1 944
1 945
1 946
1 947
1 948
1 949
1 950
1 951
1 952
1 953
1 954
1 955
1 956
1 957
1 958
1 959
1 960
1 961
1 962
1 963
1 964
1 965
1 966
1 967
1 968
1 969
1 970
1 971
1 972
1 973
1 974
1 975
1 976
1 977
1 978
1 979
1 980
1 981
1 982
1 983
1 984
1 985
1 986
1 987
1 988
1 989
1 990
1 991
1 992
1 993
1 994
1 995
1 996
1 997
1 998
1 999
1 1000
1 1001
1 1002
1 1003
1 1004
1 1005
1 1006
1 1007
1 1008
1 1009
1 1010
1 1011
1 1012
1 1013
1 1014
1 1015
1 1016
1 1017
1 1018
1 1019
1 1020
1 1021
1 1022
1 1023
1 1024
1 1025
1 1026
1 1027
1 1028
1 1029
1 1030
1 1031
1 1032
1 1033
1 1034
1 1035
1 1036
1 1037
1 1038
1 1039
1 1040
1 1041
1 1042
1 1043
1 1044
1 1045
1 1046
1 1047
1 1048
1 1049
1 1050
1 1051
1 1052
1 1053
1 1054
1 1055
1 1056
1 1057
1 1058
1 1059
1 1060
1 1061
1 1062
1 1063
1 1064
1 1065
1 1066
1 1067
1 1068
1 1069
1 1070
1 1071
1 1072
1 1073
1 1074
1 1075
1 1076
1 1077
1 1078
1 1079
1 1080
1 1081
1 1082
1 1083
1 1084
1 1085
1 1086
1 1087
1 1088
1 1089
1 1090
1 1091
1 1092
1 1093
1 1094
1 1095
1 1096
1 1097
1 1098
1 1099
1 1100
1 1101
1 1102
1 1103
1 1104
1 1105
1 1106
1 1107
1 1108
1 1109
1 1110
1 1111
1 1112
1 1113
1 1114
1 1115
1 1116
1 1117
1 1118
1 1119
1 1120
1 1121
1 1122
1 1123
1 1124
1 1125
1 1126
1 1127
1 1128
1 1129
1 1130
1 1131
1 1132
1 1133
1 1134
1 1135
1 1136
1 1137
1 1138
1 1139
1 1140
1 1141
1 1142
1 1143
1 1144
1 1145
1 1146
1 1147
1 1148
1 1149
1 1150
1 1151
1 1152
1 1153
1 1154
1 1155
1 1156
1 1157
1 1158
1 1159
1 1160
1 1161
1 1162
1 1163
1 1164
1 1165
1 1166
1 1167
1 1168
1 1169
1 1170
1 1171
1 1172
1 1173
1 1174
1 1175
1 1176
1 1177
1 1178
1 1179
1 1180
1 1181
1 1182
1 1183
1 1184
1 1185
1 1186
1 1187
1 1188
1 1189
1 1190
1 1191
1 1192
1 1193
1 1194
1 1195
1 1196
1 1197
1 1198
1 1199
1 1200
1 1201
1 1202
1 1203
1 1204
1 1205
1 1206
1 1207
1 1208
1 1209
1 1210
1 1211
1 1212
1 1213
1 1214
1 1215
1 1216
1 1217
1 1218
1 1219
1 1220
1 1221
1 1222
1 1223
1 1224
1 1225
1 1226
1 1227
1 1228
1 1229
1 1230
1 1231
1 1232
1 1233
1 1234
1 1235
1 1236
1 1237
1 1238
1 1239
1 1240
1 1241
5 9
6 7
7 8
8 9
14 15
19 20
21 22
22 23
23 24
28 29
30 32
31 32
37 39
38 40
39 40
45 46
46 47
48 52
49 50
50 51
51 52
54 56
55 56
57 58
58 59
62 63
65 66
70 71
72 73
77 79
78 79
83 85
84 85
87 89
88 89
92 93
95 96
96 98
97 98
102 103
103 104
104 105
105 106
106 107
108 109
112 113
113 114
114 115
115 116
117 118
118 120
119 120
121 122
123 124
126 127
128 129
131 132
133 134
135 136
139 141
140 141
143 144
144 146
145 146
147 156
148 151
149 154
150 151
151 152
152 153
153 154
154 155
155 156
157 158
158 159
163 164
166 168
167 169
168 169
174 176
175 176
178 183
179 180
180 181
181 182
182 183
184 185
186 187
187 188
190 197
191 192
192 193
193 194
194 195
195 196
196 198
197 198
200 201
206 207
208 209
209 210
213 214
214 218
215 216
216 217
217 218
219 220
221 223
222 223
225 226
228 231
229 230
230 231
231 232
239 240
240 242
241 242
247 248
254 255
258 259
261 262
262 263
264 266
265 267
266 267
268 269
272 274
273 274
281 284
282 283
283 285
284 285
287 288
289 291
290 291
292 293
293 294
294 295
296 297
297 298
299 300
301 302
302 303
304 306
305 306
309 310
312 313
316 317
321 322
322 324
323 324
327 328
336 337
337 338
340 341
341 342
345 347
346 347
351 354
352 353
353 354
354 356
355 356
360 361
361 363
362 363
368 370
369 370
372 373
375 376
376 381
377 379
378 379
379 380
380 381
390 392
391 393
392 393
394 395
395 396
396 397
403 404
407 408
409 410
412 413
418 419
420 421
426 428
427 429
428 429
430 432
431 432
433 437
434 435
435 436
436 437
441 444
442 443
443 444
445 447
446 447
449 450
456 457
458 462
459 460
460 461
461 462
463 464
468 469
469 470
470 471
474 475
475 476
480 481
481 485
482 483
483 484
484 486
485 486
487 488
489 491
490 491
492 493
495 497
496 497
501 502
509 510
510 511
511 512
518 519
519 520
524 525
533 534
536 538
537 538
539 540
541 543
542 543
547 548
548 549
552 553
558 560
559 560
562 563
563 564
564 565
566 567
568 569
569 570
571 572
574 575
575 578
576 577
577 579
578 579
585 586
586 587
587 589
588 589
590 595
591 592
592 593
593 594
594 595
597 602
598 599
599 600
600 601
601 602
605 606
607 611
608 609
609 610
610 612
611 612
613 615
614 615
616 617
617 618
618 619
619 620
620 622
621 622
634 635
637 638
638 639
641 642
643 644
653 654
